% project_assignment_1.dzn

n = 25; % 25 students to consider
p = 6; % topics
l = 6; % lecturers

projectToLecturer = [5, 3, 6, 4, 2, 1];

% student 1 ranks project 1 at 3, project 2 at 5, etc. 
studentProjectRanks = 
[|3, 5, 2, 4, 1, 6|
  1, 6, 4, 5, 2, 3|
  2, 1, 3, 6, 5, 4|
  4, 3, 1, 5, 6, 2|
  6, 5, 4, 2, 3, 1|
  2, 3, 5, 6, 1, 4|
  1, 2, 4, 3, 5, 6|
  3, 4, 6, 1, 2, 5|
  4, 5, 2, 1, 3, 6|
  5, 1, 3, 4, 6, 2|
  3, 2, 4, 6, 1, 5|
  1, 5, 6, 3, 4, 2|
  2, 6, 4, 5, 1, 3|
  6, 4, 3, 2, 5, 1|
  5, 1, 4, 6, 3, 2|
  2, 1, 3, 4, 6, 5|
  1, 3, 2, 5, 4, 6|
  6, 3, 5, 1, 2, 4|
  6, 4, 2, 5, 3, 1|
  6, 5, 4, 1, 2, 3|
  2, 3, 6, 4, 5, 1|
  1, 4, 6, 2, 5, 3|
  3, 2, 6, 5, 4, 1|
  4, 5, 3, 2, 6, 1|
  5, 6, 1, 4, 2, 3|];
  
% Random min and max values for minPerLecturer and maxPerLecturer
minPerLecturer = 4; 
maxPerLecturer = 10; 

% Random min and max values for minPerProject and maxPerProject
minPerProject = 4; 
maxPerProject = 10;
